(set-logic QF_SLIA)
(set-option :produce-models true)
(declare-fun x () String)
(assert (str.in_re x (re.++ (re.* (re.range "3" "9")) (str.to_re "872698"))))
(assert (= (mod (mod (str.to_int x) 285) 86) 30))
(assert (< (str.len x) 100))
(check-sat)
(get-model)